========================================================== 
File name: C:\DEGR\assets\definitions\MSRCPSP_Gen\500_10_512_10_D.def
Creation date: Sat May 06 09:15:31 CEST 2023
Website: http://imopse.ii.pwr.edu.pl/ 
Reference: 
Myszkowski P. B., Skowronski M. E., Olech L., Oslizlo K., 
Hybrid Ant Colony Optimization in solving Multi-Skill Resource-Constrained Project Scheduling Problem, 
Soft Computing, DOI: DOI 10.1007/s00500-014-1455-x 
========================================================== 
General characteristics: 
Tasks: 500
Resources: 10
Precedence relations: 508
Number of skill types: 10
========================================================== 
ResourceID 	 Salary 	 Skills 
1	 	 	78.5	 	 Q3: 3 	  Q0: 2 	  Q4: 2 	  Q7: 0 	  Q8: 1 	  Q5: 2 	  Q1: 0 	  Q9: 0 	  Q6: 1 	 
2	 	 	89.4	 	 Q9: 3 	 
3	 	 	49.1	 	 Q6: 1 	 
4	 	 	87.0	 	 Q4: 2 	  Q7: 0 	  Q1: 3 	  Q9: 0 	  Q2: 3 	  Q6: 2 	  Q3: 3 	  Q5: 3 	 
5	 	 	35.4	 	 Q1: 3 	  Q5: 1 	  Q8: 1 	  Q2: 3 	  Q3: 2 	  Q0: 0 	  Q9: 1 	  Q7: 3 	 
6	 	 	71.9	 	 Q0: 3 	  Q7: 0 	  Q5: 0 	  Q4: 2 	  Q8: 1 	  Q6: 0 	  Q2: 3 	  Q3: 3 	  Q1: 0 	 
7	 	 	70.8	 	 Q4: 2 	  Q7: 0 	  Q0: 0 	  Q9: 3 	  Q8: 2 	 
8	 	 	33.3	 	 Q6: 1 	  Q9: 3 	  Q2: 1 	  Q4: 1 	 
9	 	 	36.8	 	 Q0: 3 	  Q1: 3 	  Q8: 3 	  Q4: 2 	  Q5: 2 	  Q9: 1 	  Q6: 3 	  Q7: 3 	  Q3: 1 	 
10	 	 	45.1	 	 Q6: 1 	  Q3: 2 	  Q4: 1 	  Q1: 0 	  Q5: 1 	 
========================================================== 
TaskID 	 Duration 	 Skill 	 Predecessor IDs 
1	14	Q6:	1
2	19	Q2:	1
3	39	Q0:	3
4	11	Q4:	2
5	15	Q7:	3
6	26	Q5:	3
7	15	Q3:	2
8	23	Q8:	3
9	18	Q2:	1
10	28	Q7:	3
11	21	Q3:	3
12	18	Q6:	2
13	16	Q7:	0
14	14	Q3:	3
15	31	Q8:	2
16	12	Q3:	3
17	37	Q0:	2
18	18	Q3:	2
19	37	Q2:	3
20	29	Q5:	0	9
21	28	Q0:	0
22	40	Q6:	1
23	19	Q1:	0
24	28	Q3:	3
25	12	Q4:	1
26	17	Q7:	0
27	21	Q6:	1	26
28	33	Q7:	3
29	16	Q9:	1
30	39	Q6:	2
31	13	Q6:	3
32	32	Q1:	0	24
33	10	Q9:	0
34	32	Q6:	3
35	34	Q8:	1
36	28	Q8:	2
37	27	Q5:	2
38	20	Q9:	0
39	35	Q1:	3
40	24	Q6:	2
41	16	Q7:	3	14
42	35	Q6:	0
43	27	Q6:	0
44	11	Q6:	2
45	14	Q0:	2
46	15	Q8:	1
47	29	Q6:	2
48	37	Q6:	0
49	21	Q6:	2
50	30	Q9:	1
51	27	Q8:	1
52	12	Q9:	3	26
53	32	Q9:	3
54	40	Q9:	3
55	19	Q0:	3
56	19	Q8:	3
57	19	Q8:	2	36
58	33	Q5:	0
59	10	Q6:	3	38
60	31	Q9:	0
61	9	Q5:	0
62	31	Q2:	3
63	11	Q6:	2
64	25	Q3:	1
65	23	Q3:	3
66	30	Q0:	2
67	10	Q8:	1
68	19	Q1:	3	64
69	9	Q6:	2
70	38	Q0:	3
71	35	Q8:	3	11
72	36	Q6:	0
73	11	Q7:	3
74	25	Q2:	3
75	38	Q3:	3
76	24	Q5:	2
77	20	Q6:	1
78	14	Q5:	0
79	33	Q6:	3
80	32	Q7:	3
81	14	Q9:	1
82	18	Q0:	3
83	22	Q9:	1
84	16	Q4:	1
85	9	Q5:	3
86	12	Q3:	1	5
87	20	Q2:	1
88	34	Q6:	3
89	32	Q7:	0
90	12	Q3:	1	18
91	14	Q7:	0
92	40	Q5:	3
93	14	Q2:	1
94	10	Q9:	3	66
95	39	Q8:	1
96	30	Q1:	0	27
97	25	Q5:	3
98	19	Q3:	2	80	34
99	28	Q6:	2
100	26	Q3:	1	43
101	27	Q6:	0	44
102	10	Q0:	3	64	50
103	38	Q0:	0
104	21	Q8:	2	53	102
105	37	Q6:	0	62
106	28	Q2:	3
107	27	Q2:	1	90
108	29	Q9:	3
109	13	Q6:	3
110	19	Q4:	1
111	21	Q3:	2
112	17	Q6:	0	55
113	26	Q6:	3	47	50
114	24	Q6:	0	69
115	28	Q7:	3
116	14	Q2:	1
117	17	Q9:	1	60
118	9	Q6:	0
119	25	Q8:	2	88	65
120	26	Q7:	3	15
121	27	Q7:	0
122	24	Q7:	0	49
123	36	Q2:	3
124	32	Q0:	3
125	10	Q5:	2
126	27	Q6:	1	103	85
127	30	Q7:	0	45
128	35	Q6:	2
129	23	Q2:	1
130	15	Q8:	2
131	25	Q9:	1
132	37	Q7:	3	63	66
133	38	Q7:	0
134	33	Q0:	0	56
135	32	Q7:	0	7	86
136	31	Q3:	2
137	11	Q5:	1
138	37	Q8:	3	90
139	40	Q6:	1	37
140	21	Q5:	1
141	30	Q9:	1
142	26	Q0:	3	76
143	30	Q8:	3
144	31	Q6:	0
145	40	Q6:	3	23
146	23	Q6:	2	43
147	28	Q4:	2	87
148	24	Q5:	1
149	22	Q0:	0	104
150	30	Q9:	0	67
151	17	Q9:	1	124
152	17	Q8:	1	88
153	39	Q8:	2	104	57
154	34	Q0:	0	89
155	28	Q5:	2
156	33	Q2:	1
157	35	Q3:	2	78
158	32	Q6:	0	130
159	15	Q8:	1	67
160	10	Q8:	3	153	31
161	35	Q7:	3
162	37	Q0:	0	53
163	15	Q2:	1	87
164	13	Q9:	0
165	21	Q3:	3	96
166	31	Q6:	1
167	35	Q9:	3	32	92
168	14	Q8:	1
169	27	Q6:	0	31
170	14	Q3:	1	79
171	25	Q9:	1	49
172	24	Q9:	3	36
173	40	Q8:	1	99	134
174	20	Q2:	3
175	17	Q6:	2	32	8
176	16	Q8:	1
177	25	Q6:	2
178	12	Q5:	0
179	26	Q6:	1
180	13	Q4:	2	89
181	39	Q5:	1	27
182	28	Q0:	2	46
183	24	Q8:	1	67
184	31	Q0:	2
185	16	Q3:	2
186	37	Q0:	0
187	15	Q2:	1	60
188	35	Q7:	0
189	38	Q8:	2	177
190	35	Q3:	1
191	33	Q5:	3	97	71
192	27	Q5:	1	145	89	93
193	8	Q9:	3	44
194	37	Q4:	2
195	16	Q5:	1	58
196	12	Q5:	3	171
197	30	Q3:	2
198	35	Q3:	2
199	34	Q6:	1	91
200	18	Q8:	3	64
201	20	Q5:	3
202	33	Q5:	3	2
203	37	Q5:	3	184	71	77	55
204	18	Q6:	2
205	34	Q3:	3	194
206	11	Q0:	0
207	33	Q7:	0
208	35	Q1:	0	94	115
209	15	Q4:	1	50
210	9	Q8:	2	144
211	40	Q9:	0	25
212	19	Q7:	3
213	22	Q4:	2	162
214	38	Q6:	1	128
215	32	Q5:	3
216	11	Q4:	1	18
217	30	Q8:	1	120	113
218	16	Q0:	2	69
219	14	Q9:	0	208
220	14	Q5:	0	69
221	28	Q2:	1	220	29
222	27	Q1:	0	184	35
223	12	Q3:	2	220	45	97
224	31	Q2:	3	159
225	33	Q5:	3
226	33	Q0:	0	84
227	38	Q5:	1
228	32	Q9:	3	161	39
229	21	Q8:	2	37
230	22	Q9:	3	155
231	24	Q0:	3	84
232	40	Q0:	3
233	16	Q8:	3
234	15	Q8:	3	198
235	18	Q5:	0	145
236	17	Q3:	1
237	40	Q9:	3	104
238	20	Q8:	2	148	129
239	37	Q9:	0	90
240	19	Q6:	0
241	11	Q9:	0	183
242	37	Q5:	2
243	36	Q2:	1
244	38	Q3:	1	47
245	16	Q8:	3	176
246	19	Q9:	0	34
247	31	Q1:	3
248	30	Q7:	3	47
249	20	Q1:	0	137
250	31	Q0:	3	80
251	10	Q6:	0	225
252	27	Q0:	2	132
253	9	Q1:	3
254	27	Q8:	2
255	39	Q6:	3	107
256	35	Q1:	3
257	20	Q6:	0	213
258	28	Q8:	2	72	44
259	26	Q2:	3
260	31	Q7:	3	198
261	12	Q9:	3	90
262	13	Q7:	3
263	35	Q6:	2
264	19	Q5:	0
265	32	Q3:	3	67
266	18	Q4:	1	265
267	20	Q9:	0	26	251	242	117
268	16	Q9:	3	165
269	37	Q8:	1
270	11	Q1:	3	205	132
271	20	Q6:	3
272	29	Q3:	2
273	11	Q2:	1	39
274	37	Q3:	3	213	117
275	31	Q3:	3	139
276	39	Q0:	2	129	248
277	38	Q9:	3	95	261
278	22	Q9:	3
279	39	Q2:	1	84
280	32	Q6:	2	62	221
281	14	Q5:	3	247
282	33	Q9:	1	99
283	23	Q8:	3	70
284	20	Q7:	3
285	16	Q6:	2
286	21	Q0:	3
287	38	Q8:	3	58	121	83
288	9	Q5:	0	278
289	27	Q5:	2	148	2	274
290	31	Q5:	1	60	251	24
291	33	Q5:	2
292	38	Q8:	1
293	27	Q6:	1	136	269
294	31	Q6:	0	80	291
295	25	Q0:	0	59
296	28	Q2:	3	208
297	26	Q3:	3	23
298	17	Q9:	1
299	28	Q6:	1	119
300	19	Q4:	2	127	124
301	23	Q9:	1
302	13	Q0:	0	187	188
303	30	Q7:	0	139
304	18	Q5:	3	292	125	270
305	25	Q3:	2	281
306	29	Q6:	0	34
307	40	Q4:	1	73	28	285	86
308	26	Q1:	0	226	302	233	220
309	20	Q2:	3
310	18	Q3:	1	226	306
311	35	Q2:	3	78
312	20	Q5:	0
313	21	Q0:	3	178
314	33	Q8:	3	66
315	31	Q3:	3	41	257	57
316	32	Q1:	3
317	31	Q8:	3
318	24	Q6:	3
319	24	Q5:	0	105
320	24	Q5:	1
321	16	Q5:	2	190	243
322	23	Q4:	2
323	38	Q3:	1	2	38	100
324	28	Q1:	3	240	42
325	15	Q5:	2	221
326	19	Q4:	2	117	149
327	15	Q9:	3	91	270
328	25	Q2:	3
329	35	Q6:	2
330	16	Q6:	0	168
331	13	Q3:	2	275	282	273
332	33	Q7:	0	94
333	34	Q4:	1	96	157
334	39	Q4:	1	324
335	20	Q7:	3	241	162
336	17	Q8:	2	132
337	24	Q9:	0
338	11	Q3:	3
339	10	Q1:	3	303	278	143
340	34	Q1:	3	298
341	20	Q0:	2	97
342	21	Q9:	3
343	36	Q1:	0	241
344	10	Q9:	3	233	98
345	11	Q5:	3	88	236	143
346	28	Q5:	3	303
347	28	Q2:	3	200	70	96
348	24	Q3:	2	127	239
349	37	Q4:	2	327	298
350	31	Q0:	2	117	21
351	18	Q7:	3	145
352	29	Q6:	0	288
353	40	Q6:	1	230
354	23	Q7:	3	132
355	14	Q8:	1
356	22	Q7:	0	107	299	17	94
357	31	Q5:	1	133
358	35	Q0:	2
359	34	Q3:	2	54
360	23	Q1:	0
361	13	Q3:	3
362	9	Q1:	3	356
363	22	Q3:	3	294
364	22	Q7:	0
365	39	Q2:	1	92	248	48	298	62	217
366	32	Q5:	3	154	266	17
367	22	Q6:	3	130
368	37	Q5:	3
369	32	Q0:	0
370	36	Q9:	1	148	10	367
371	35	Q0:	3	322	26
372	16	Q6:	2	272
373	27	Q7:	3	224
374	24	Q8:	2	10	186	214
375	12	Q6:	2	226
376	17	Q9:	0	83	89	151
377	16	Q8:	3
378	26	Q2:	3	239	232	273
379	22	Q3:	2
380	37	Q7:	3	125
381	15	Q0:	2	189	378
382	36	Q0:	3	128	288
383	34	Q4:	1	156
384	13	Q0:	2
385	40	Q6:	3	9	250	196
386	11	Q7:	0	152
387	20	Q0:	3
388	36	Q1:	0
389	14	Q5:	2	89	59
390	36	Q7:	3	322	180	21	168
391	17	Q9:	3
392	26	Q5:	0	341	258
393	19	Q1:	0	353
394	11	Q6:	1	147
395	27	Q6:	3	141	184
396	38	Q6:	1	189	76
397	10	Q6:	2	40
398	23	Q9:	0
399	36	Q9:	0	15	323	305
400	17	Q6:	3	357	112	169	82
401	34	Q4:	1	213	269	123	125
402	38	Q7:	0
403	15	Q0:	0
404	18	Q1:	0	321	394	351	63
405	27	Q0:	3	170	237
406	12	Q6:	0	54	147
407	40	Q1:	0	45
408	11	Q9:	0	154	357	34	115
409	27	Q9:	1	405	257
410	16	Q1:	0	96	5	290
411	13	Q0:	3
412	31	Q0:	2	88
413	15	Q5:	0	90	97
414	34	Q5:	0	333
415	39	Q2:	1	103	304	82
416	20	Q6:	2	92	244
417	20	Q0:	0	165
418	39	Q6:	3	26
419	25	Q4:	1
420	40	Q5:	2	272	29	194	160
421	17	Q5:	1	283
422	15	Q9:	1	68
423	14	Q5:	0	222	304	380	250
424	17	Q7:	0	140
425	32	Q3:	3	21
426	33	Q5:	0	101	181
427	28	Q6:	0	319	390
428	32	Q5:	2	344	214	107
429	21	Q3:	3	81	321
430	30	Q2:	1	332
431	35	Q5:	2	192	156
432	31	Q8:	1	342	239
433	14	Q5:	2	174	294
434	15	Q5:	2	216
435	20	Q7:	0
436	13	Q6:	1	155	189
437	14	Q8:	2	47
438	9	Q3:	3	387	211	197	50	332	213
439	14	Q5:	3	380	21
440	26	Q0:	2	51	124	191	136
441	18	Q2:	1	258	370	138	381
442	17	Q9:	1	365	80
443	10	Q1:	3	69	183
444	27	Q4:	2	345	323	86
445	38	Q5:	3	142	364
446	16	Q6:	1	232	229
447	18	Q8:	3	327
448	9	Q3:	2
449	25	Q8:	3	101	341
450	11	Q9:	1	172
451	16	Q2:	1	248
452	20	Q6:	2	7	312
453	27	Q1:	0	327	122
454	27	Q0:	0	110	414	354
455	12	Q5:	2	101	305
456	38	Q7:	0	364
457	37	Q1:	3	27	248
458	30	Q4:	1
459	15	Q8:	2	30	205
460	38	Q3:	3	89	31	296
461	12	Q3:	1	322	221
462	40	Q8:	2	406
463	29	Q1:	0	266	209
464	24	Q0:	3	82
465	11	Q4:	2	143
466	29	Q7:	3	247
467	30	Q5:	0	269
468	31	Q1:	3
469	11	Q4:	1	276	219
470	14	Q6:	3	366
471	37	Q9:	3	310	132	425
472	34	Q1:	3	53
473	20	Q9:	3	82
474	27	Q6:	2	437	165
475	20	Q3:	1	230
476	32	Q2:	3	7	146
477	26	Q3:	1	76	336
478	20	Q1:	3	288	39
479	18	Q3:	3	18	254	30	53
480	9	Q2:	1	384	429	242	324	1	143
481	36	Q0:	0	49	443	34
482	33	Q8:	2
483	31	Q3:	3	198	165
484	13	Q8:	2	55
485	28	Q8:	2	419	188	105
486	28	Q0:	0	249
487	37	Q0:	0	374	50	204	135
488	39	Q9:	0	168	33
489	10	Q4:	1	206	352	349
490	27	Q5:	2
491	25	Q0:	0
492	27	Q0:	2	131	237	12
493	39	Q7:	3	394
494	20	Q1:	3	225
495	17	Q2:	1	173	298	75
496	40	Q9:	3	4	115	68	412
497	11	Q3:	3	360	33	252
498	29	Q5:	1
499	20	Q9:	3
500	11	Q9:	1
========================================================== 